54
75
60	18
59	9
58	9
57	14
56	13
55	11
54	11
53	11
52	20
51	18
50	16
49	13
48	17
47	20
46	9
45	17
44	16
43	22
42	15
41	13
40	12
39	13
38	12
37	20
36	8
35	14
34	18
33	8
32	23
31	12
30	9
29	8
28	13
27	13
26	17
25	10
24	16
23	16
22	7
21	14
20	14
19	17
18	11
17	7
16	8
15	14
14	15
13	14
12	11
11	14
10	21
9	18
8	15
7	16
